nK = 2397;
nT = 6;
nI = 14;
L = 35;
TT = 489;
np = 1;
nc = 3;
b = [31, 65, 42, 62, 38, 35, 58, 54, 53, 61, 32, 31, 22, 62];
d = [74, 136, 98, 94, 78, 124, 132, 120, 138, 108, 144, 72, 132, 123];
m = [2.5, 1.4, 2.4, 2.3, 2.4, 2.2, 2.3, 1.8, 2.1, 1, 1.2, 2.1, 2.3, 1];
pt = [0.32, 0.35, 0.34, 0.21, 0.2, 0.2];
st = [19.2, 17.5, 16.66, 11.76, 9.6, 12];
arc = {<1, 0, 1, 1, 0, 0, 0, [1, 1, 1, 1, 1, 1]>, <2, 1, 2, 1, 0, 0, 0, [1, 1, 1, 1, 1, 1]>, <3, 2, 3, 1, 0, 0, 0, [1, 1, 1, 1, 1, 1]>, <4, 3, 4, 1, 0, 0, 0, [1, 1, 1, 1, 1, 1]>, <5, 4, 5, 1, 0, 0, 0, [1, 1, 1, 1, 1, 1]>, <6, 5, 6, 1, 0, 0, 0, [1, 1, 1, 1, 1, 1]>, <7, 6, 7, 1, 0, 0, 0, [1, 1, 1, 1, 1, 1]>, <8, 7, 8, 1, 0, 0, 0, [1, 1, 1, 1, 1, 1]>, <9, 8, 9, 1, 0, 0, 0, [1, 1, 1, 1, 1, 1]>, <10, 9, 10, 1, 0, 0, 0, [1, 1, 1, 1, 1, 1]>, <11, 10, 11, 1, 0, 0, 0, [1, 1, 1, 1, 1, 1]>, <12, 11, 12, 1, 0, 0, 0, [1, 1, 1, 1, 1, 1]>, <13, 12, 13, 1, 0, 0, 0, [1, 1, 1, 1, 1, 1]>, <14, 13, 14, 1, 0, 0, 0, [1, 1, 1, 1, 1, 1]>, <15, 14, 15, 1, 0, 0, 0, [1, 1, 1, 1, 1, 1]>, <16, 15, 16, 1, 0, 0, 0, [1, 1, 1, 1, 1, 1]>, <17, 16, 17, 1, 0, 0, 0, [1, 1, 1, 1, 1, 1]>, <18, 17, 18, 1, 0, 0, 0, [1, 1, 1, 1, 1, 1]>, <19, 18, 19, 1, 0, 0, 0, [1, 1, 1, 1, 1, 1]>, <20, 19, 20, 1, 0, 0, 0, [1, 1, 1, 1, 1, 1]>, <21, 20, 21, 1, 0, 0, 0, [1, 1, 1, 1, 1, 1]>, <22, 21, 22, 1, 0, 0, 0, [1, 1, 1, 1, 1, 1]>, <23, 22, 23, 1, 0, 0, 0, [1, 1, 1, 1, 1, 1]>, <24, 23, 24, 1, 0, 0, 0, [1, 1, 1, 1, 1, 1]>, <25, 24, 25, 1, 0, 0, 0, [1, 1, 1, 1, 1, 1]>, <26, 25, 26, 1, 0, 0, 0, [1, 1, 1, 1, 1, 1]>, <27, 26, 27, 1, 0, 0, 0, [1, 1, 1, 1, 1, 1]>, <28, 27, 28, 1, 0, 0, 0, [1, 1, 1, 1, 1, 1]>, <29, 28, 29, 1, 0, 0, 0, [1, 1, 1, 1, 1, 1]>, <30, 29, 30, 1, 0, 0, 0, [1, 1, 1, 1, 1, 1]>, <31, 30, 31, 1, 0, 0, 0, [1, 1, 1, 1, 1, 1]>, <32, 31, 32, 1, 0, 0, 0, [1, 1, 1, 1, 1, 1]>, <33, 32, 33, 1, 0, 0, 0, [1, 1, 1, 1, 1, 1]>, <34, 33, 34, 1, 0, 0, 0, [1, 1, 1, 1, 1, 1]>, <35, 34, 35, 1, 0, 0, 0, [1, 1, 1, 1, 1, 1]>, <36, 0, 19, 19, 1, 0, 0, [0, 0, 0, 1, 1, 0]>, <37, 1, 20, 19, 1, 0, 0, [0, 0, 0, 1, 1, 0]>, <38, 2, 21, 19, 1, 0, 0, [0, 0, 0, 1, 1, 0]>, <39, 3, 22, 19, 1, 0, 0, [0, 0, 0, 1, 1, 0]>, <40, 4, 23, 19, 1, 0, 0, [0, 0, 0, 1, 1, 0]>, <41, 5, 24, 19, 1, 0, 0, [0, 0, 0, 1, 1, 0]>, <42, 6, 25, 19, 1, 0, 0, [0, 0, 0, 1, 1, 0]>, <43, 7, 26, 19, 1, 0, 0, [0, 0, 0, 1, 1, 0]>, <44, 8, 27, 19, 1, 0, 0, [0, 0, 0, 1, 1, 0]>, <45, 9, 28, 19, 1, 0, 0, [0, 0, 0, 1, 1, 0]>, <46, 10, 29, 19, 1, 0, 0, [0, 0, 0, 1, 1, 0]>, <47, 11, 30, 19, 1, 0, 0, [0, 0, 0, 1, 1, 0]>, <48, 12, 31, 19, 1, 0, 0, [0, 0, 0, 1, 1, 0]>, <49, 13, 32, 19, 1, 0, 0, [0, 0, 0, 1, 1, 0]>, <50, 14, 33, 19, 1, 0, 0, [0, 0, 0, 1, 1, 0]>, <51, 15, 34, 19, 1, 0, 0, [0, 0, 0, 1, 1, 0]>, <52, 16, 35, 19, 1, 0, 0, [0, 0, 0, 1, 1, 0]>, <53, 0, 21, 21, 2, 0, 0, [0, 0, 0, 1, 1, 0]>, <54, 1, 22, 21, 2, 0, 0, [0, 0, 0, 1, 1, 0]>, <55, 2, 23, 21, 2, 0, 0, [0, 0, 0, 1, 1, 0]>, <56, 3, 24, 21, 2, 0, 0, [0, 0, 0, 1, 1, 0]>, <57, 4, 25, 21, 2, 0, 0, [0, 0, 0, 1, 1, 0]>, <58, 5, 26, 21, 2, 0, 0, [0, 0, 0, 1, 1, 0]>, <59, 6, 27, 21, 2, 0, 0, [0, 0, 0, 1, 1, 0]>, <60, 7, 28, 21, 2, 0, 0, [0, 0, 0, 1, 1, 0]>, <61, 8, 29, 21, 2, 0, 0, [0, 0, 0, 1, 1, 0]>, <62, 9, 30, 21, 2, 0, 0, [0, 0, 0, 1, 1, 0]>, <63, 10, 31, 21, 2, 0, 0, [0, 0, 0, 1, 1, 0]>, <64, 11, 32, 21, 2, 0, 0, [0, 0, 0, 1, 1, 0]>, <65, 12, 33, 21, 2, 0, 0, [0, 0, 0, 1, 1, 0]>, <66, 13, 34, 21, 2, 0, 0, [0, 0, 0, 1, 1, 0]>, <67, 14, 35, 21, 2, 0, 0, [0, 0, 0, 1, 1, 0]>, <68, 0, 20, 20, 3, 0, 0, [1, 0, 0, 0, 0, 1]>, <69, 1, 21, 20, 3, 0, 0, [1, 0, 0, 0, 0, 1]>, <70, 2, 22, 20, 3, 0, 0, [1, 0, 0, 0, 0, 1]>, <71, 3, 23, 20, 3, 0, 0, [1, 0, 0, 0, 0, 1]>, <72, 4, 24, 20, 3, 0, 0, [1, 0, 0, 0, 0, 1]>, <73, 5, 25, 20, 3, 0, 0, [1, 0, 0, 0, 0, 1]>, <74, 6, 26, 20, 3, 0, 0, [1, 0, 0, 0, 0, 1]>, <75, 7, 27, 20, 3, 0, 0, [1, 0, 0, 0, 0, 1]>, <76, 8, 28, 20, 3, 0, 0, [1, 0, 0, 0, 0, 1]>, <77, 9, 29, 20, 3, 0, 0, [1, 0, 0, 0, 0, 1]>, <78, 10, 30, 20, 3, 0, 0, [1, 0, 0, 0, 0, 1]>, <79, 11, 31, 20, 3, 0, 0, [1, 0, 0, 0, 0, 1]>, <80, 12, 32, 20, 3, 0, 0, [1, 0, 0, 0, 0, 1]>, <81, 13, 33, 20, 3, 0, 0, [1, 0, 0, 0, 0, 1]>, <82, 14, 34, 20, 3, 0, 0, [1, 0, 0, 0, 0, 1]>, <83, 15, 35, 20, 3, 0, 0, [1, 0, 0, 0, 0, 1]>, <84, 0, 19, 19, 4, 1, 0, [0, 1, 1, 0, 0, 0]>, <85, 1, 20, 19, 4, 1, 0, [0, 1, 1, 0, 0, 0]>, <86, 2, 21, 19, 4, 1, 0, [0, 1, 1, 0, 0, 0]>, <87, 3, 22, 19, 4, 1, 0, [0, 1, 1, 0, 0, 0]>, <88, 4, 23, 19, 4, 1, 0, [0, 1, 1, 0, 0, 0]>, <89, 5, 24, 19, 4, 1, 0, [0, 1, 1, 0, 0, 0]>, <90, 6, 25, 19, 4, 1, 0, [0, 1, 1, 0, 0, 0]>, <91, 7, 26, 19, 4, 1, 0, [0, 1, 1, 0, 0, 0]>, <92, 8, 27, 19, 4, 1, 0, [0, 1, 1, 0, 0, 0]>, <93, 9, 28, 19, 4, 1, 0, [0, 1, 1, 0, 0, 0]>, <94, 10, 29, 19, 4, 1, 0, [0, 1, 1, 0, 0, 0]>, <95, 11, 30, 19, 4, 1, 0, [0, 1, 1, 0, 0, 0]>, <96, 12, 31, 19, 4, 1, 0, [0, 1, 1, 0, 0, 0]>, <97, 13, 32, 19, 4, 1, 0, [0, 1, 1, 0, 0, 0]>, <98, 14, 33, 19, 4, 1, 0, [0, 1, 1, 0, 0, 0]>, <99, 15, 34, 19, 4, 1, 0, [0, 1, 1, 0, 0, 0]>, <100, 16, 35, 19, 4, 1, 0, [0, 1, 1, 0, 0, 0]>, <101, 0, 21, 21, 5, 0, 0, [0, 0, 0, 0, 1, 1]>, <102, 1, 22, 21, 5, 0, 0, [0, 0, 0, 0, 1, 1]>, <103, 2, 23, 21, 5, 0, 0, [0, 0, 0, 0, 1, 1]>, <104, 3, 24, 21, 5, 0, 0, [0, 0, 0, 0, 1, 1]>, <105, 4, 25, 21, 5, 0, 0, [0, 0, 0, 0, 1, 1]>, <106, 5, 26, 21, 5, 0, 0, [0, 0, 0, 0, 1, 1]>, <107, 6, 27, 21, 5, 0, 0, [0, 0, 0, 0, 1, 1]>, <108, 7, 28, 21, 5, 0, 0, [0, 0, 0, 0, 1, 1]>, <109, 8, 29, 21, 5, 0, 0, [0, 0, 0, 0, 1, 1]>, <110, 9, 30, 21, 5, 0, 0, [0, 0, 0, 0, 1, 1]>, <111, 10, 31, 21, 5, 0, 0, [0, 0, 0, 0, 1, 1]>, <112, 11, 32, 21, 5, 0, 0, [0, 0, 0, 0, 1, 1]>, <113, 12, 33, 21, 5, 0, 0, [0, 0, 0, 0, 1, 1]>, <114, 13, 34, 21, 5, 0, 0, [0, 0, 0, 0, 1, 1]>, <115, 14, 35, 21, 5, 0, 0, [0, 0, 0, 0, 1, 1]>, <116, 1, 17, 16, 6, 0, 0, [0, 0, 0, 1, 1, 0]>, <117, 2, 18, 16, 6, 0, 0, [0, 0, 0, 1, 1, 0]>, <118, 3, 19, 16, 6, 0, 0, [0, 0, 0, 1, 1, 0]>, <119, 4, 20, 16, 6, 0, 0, [0, 0, 0, 1, 1, 0]>, <120, 5, 21, 16, 6, 0, 0, [0, 0, 0, 1, 1, 0]>, <121, 6, 22, 16, 6, 0, 0, [0, 0, 0, 1, 1, 0]>, <122, 10, 26, 16, 6, 0, 0, [0, 0, 0, 1, 1, 0]>, <123, 11, 27, 16, 6, 0, 0, [0, 0, 0, 1, 1, 0]>, <124, 12, 28, 16, 6, 0, 0, [0, 0, 0, 1, 1, 0]>, <125, 13, 29, 16, 6, 0, 0, [0, 0, 0, 1, 1, 0]>, <126, 14, 30, 16, 6, 0, 0, [0, 0, 0, 1, 1, 0]>, <127, 15, 31, 16, 6, 0, 0, [0, 0, 0, 1, 1, 0]>, <128, 16, 32, 16, 6, 0, 0, [0, 0, 0, 1, 1, 0]>, <129, 17, 33, 16, 6, 0, 0, [0, 0, 0, 1, 1, 0]>, <130, 18, 34, 16, 6, 0, 0, [0, 0, 0, 1, 1, 0]>, <131, 19, 35, 16, 6, 0, 0, [0, 0, 0, 1, 1, 0]>, <132, 0, 21, 21, 7, 0, 1, [0, 0, 1, 1, 0, 0]>, <133, 1, 22, 21, 7, 0, 1, [0, 0, 1, 1, 0, 0]>, <134, 2, 23, 21, 7, 0, 1, [0, 0, 1, 1, 0, 0]>, <135, 3, 24, 21, 7, 0, 1, [0, 0, 1, 1, 0, 0]>, <136, 4, 25, 21, 7, 0, 1, [0, 0, 1, 1, 0, 0]>, <137, 5, 26, 21, 7, 0, 1, [0, 0, 1, 1, 0, 0]>, <138, 6, 27, 21, 7, 0, 1, [0, 0, 1, 1, 0, 0]>, <139, 7, 28, 21, 7, 0, 1, [0, 0, 1, 1, 0, 0]>, <140, 8, 29, 21, 7, 0, 1, [0, 0, 1, 1, 0, 0]>, <141, 9, 30, 21, 7, 0, 1, [0, 0, 1, 1, 0, 0]>, <142, 10, 31, 21, 7, 0, 1, [0, 0, 1, 1, 0, 0]>, <143, 11, 32, 21, 7, 0, 1, [0, 0, 1, 1, 0, 0]>, <144, 12, 33, 21, 7, 0, 1, [0, 0, 1, 1, 0, 0]>, <145, 13, 34, 21, 7, 0, 1, [0, 0, 1, 1, 0, 0]>, <146, 14, 35, 21, 7, 0, 1, [0, 0, 1, 1, 0, 0]>, <147, 0, 21, 21, 8, 0, 0, [0, 0, 0, 1, 1, 0]>, <148, 1, 22, 21, 8, 0, 0, [0, 0, 0, 1, 1, 0]>, <149, 2, 23, 21, 8, 0, 0, [0, 0, 0, 1, 1, 0]>, <150, 3, 24, 21, 8, 0, 0, [0, 0, 0, 1, 1, 0]>, <151, 4, 25, 21, 8, 0, 0, [0, 0, 0, 1, 1, 0]>, <152, 5, 26, 21, 8, 0, 0, [0, 0, 0, 1, 1, 0]>, <153, 6, 27, 21, 8, 0, 0, [0, 0, 0, 1, 1, 0]>, <154, 7, 28, 21, 8, 0, 0, [0, 0, 0, 1, 1, 0]>, <155, 8, 29, 21, 8, 0, 0, [0, 0, 0, 1, 1, 0]>, <156, 9, 30, 21, 8, 0, 0, [0, 0, 0, 1, 1, 0]>, <157, 10, 31, 21, 8, 0, 0, [0, 0, 0, 1, 1, 0]>, <158, 11, 32, 21, 8, 0, 0, [0, 0, 0, 1, 1, 0]>, <159, 12, 33, 21, 8, 0, 0, [0, 0, 0, 1, 1, 0]>, <160, 13, 34, 21, 8, 0, 0, [0, 0, 0, 1, 1, 0]>, <161, 14, 35, 21, 8, 0, 0, [0, 0, 0, 1, 1, 0]>, <162, 0, 19, 19, 9, 0, 0, [0, 1, 1, 0, 0, 0]>, <163, 1, 20, 19, 9, 0, 0, [0, 1, 1, 0, 0, 0]>, <164, 2, 21, 19, 9, 0, 0, [0, 1, 1, 0, 0, 0]>, <165, 3, 22, 19, 9, 0, 0, [0, 1, 1, 0, 0, 0]>, <166, 4, 23, 19, 9, 0, 0, [0, 1, 1, 0, 0, 0]>, <167, 5, 24, 19, 9, 0, 0, [0, 1, 1, 0, 0, 0]>, <168, 6, 25, 19, 9, 0, 0, [0, 1, 1, 0, 0, 0]>, <169, 7, 26, 19, 9, 0, 0, [0, 1, 1, 0, 0, 0]>, <170, 8, 27, 19, 9, 0, 0, [0, 1, 1, 0, 0, 0]>, <171, 9, 28, 19, 9, 0, 0, [0, 1, 1, 0, 0, 0]>, <172, 10, 29, 19, 9, 0, 0, [0, 1, 1, 0, 0, 0]>, <173, 11, 30, 19, 9, 0, 0, [0, 1, 1, 0, 0, 0]>, <174, 12, 31, 19, 9, 0, 0, [0, 1, 1, 0, 0, 0]>, <175, 13, 32, 19, 9, 0, 0, [0, 1, 1, 0, 0, 0]>, <176, 14, 33, 19, 9, 0, 0, [0, 1, 1, 0, 0, 0]>, <177, 15, 34, 19, 9, 0, 0, [0, 1, 1, 0, 0, 0]>, <178, 16, 35, 19, 9, 0, 0, [0, 1, 1, 0, 0, 0]>, <179, 0, 17, 17, 10, 0, 0, [0, 0, 0, 1, 1, 0]>, <180, 1, 18, 17, 10, 0, 0, [0, 0, 0, 1, 1, 0]>, <181, 2, 19, 17, 10, 0, 0, [0, 0, 0, 1, 1, 0]>, <182, 3, 20, 17, 10, 0, 0, [0, 0, 0, 1, 1, 0]>, <183, 4, 21, 17, 10, 0, 0, [0, 0, 0, 1, 1, 0]>, <184, 5, 22, 17, 10, 0, 0, [0, 0, 0, 1, 1, 0]>, <185, 6, 23, 17, 10, 0, 0, [0, 0, 0, 1, 1, 0]>, <186, 9, 26, 17, 10, 0, 0, [0, 0, 0, 1, 1, 0]>, <187, 10, 27, 17, 10, 0, 0, [0, 0, 0, 1, 1, 0]>, <188, 11, 28, 17, 10, 0, 0, [0, 0, 0, 1, 1, 0]>, <189, 12, 29, 17, 10, 0, 0, [0, 0, 0, 1, 1, 0]>, <190, 13, 30, 17, 10, 0, 0, [0, 0, 0, 1, 1, 0]>, <191, 14, 31, 17, 10, 0, 0, [0, 0, 0, 1, 1, 0]>, <192, 15, 32, 17, 10, 0, 0, [0, 0, 0, 1, 1, 0]>, <193, 16, 33, 17, 10, 0, 0, [0, 0, 0, 1, 1, 0]>, <194, 17, 34, 17, 10, 0, 0, [0, 0, 0, 1, 1, 0]>, <195, 18, 35, 17, 10, 0, 0, [0, 0, 0, 1, 1, 0]>, <196, 0, 18, 18, 11, 0, 1, [1, 1, 0, 0, 0, 0]>, <197, 1, 19, 18, 11, 0, 1, [1, 1, 0, 0, 0, 0]>, <198, 2, 20, 18, 11, 0, 1, [1, 1, 0, 0, 0, 0]>, <199, 3, 21, 18, 11, 0, 1, [1, 1, 0, 0, 0, 0]>, <200, 4, 22, 18, 11, 0, 1, [1, 1, 0, 0, 0, 0]>, <201, 5, 23, 18, 11, 0, 1, [1, 1, 0, 0, 0, 0]>, <202, 6, 24, 18, 11, 0, 1, [1, 1, 0, 0, 0, 0]>, <203, 8, 26, 18, 11, 0, 1, [1, 1, 0, 0, 0, 0]>, <204, 9, 27, 18, 11, 0, 1, [1, 1, 0, 0, 0, 0]>, <205, 10, 28, 18, 11, 0, 1, [1, 1, 0, 0, 0, 0]>, <206, 11, 29, 18, 11, 0, 1, [1, 1, 0, 0, 0, 0]>, <207, 12, 30, 18, 11, 0, 1, [1, 1, 0, 0, 0, 0]>, <208, 13, 31, 18, 11, 0, 1, [1, 1, 0, 0, 0, 0]>, <209, 14, 32, 18, 11, 0, 1, [1, 1, 0, 0, 0, 0]>, <210, 15, 33, 18, 11, 0, 1, [1, 1, 0, 0, 0, 0]>, <211, 16, 34, 18, 11, 0, 1, [1, 1, 0, 0, 0, 0]>, <212, 17, 35, 18, 11, 0, 1, [1, 1, 0, 0, 0, 0]>, <213, 0, 17, 17, 12, 0, 1, [0, 1, 1, 0, 0, 0]>, <214, 1, 18, 17, 12, 0, 1, [0, 1, 1, 0, 0, 0]>, <215, 2, 19, 17, 12, 0, 1, [0, 1, 1, 0, 0, 0]>, <216, 3, 20, 17, 12, 0, 1, [0, 1, 1, 0, 0, 0]>, <217, 4, 21, 17, 12, 0, 1, [0, 1, 1, 0, 0, 0]>, <218, 5, 22, 17, 12, 0, 1, [0, 1, 1, 0, 0, 0]>, <219, 6, 23, 17, 12, 0, 1, [0, 1, 1, 0, 0, 0]>, <220, 9, 26, 17, 12, 0, 1, [0, 1, 1, 0, 0, 0]>, <221, 10, 27, 17, 12, 0, 1, [0, 1, 1, 0, 0, 0]>, <222, 11, 28, 17, 12, 0, 1, [0, 1, 1, 0, 0, 0]>, <223, 12, 29, 17, 12, 0, 1, [0, 1, 1, 0, 0, 0]>, <224, 13, 30, 17, 12, 0, 1, [0, 1, 1, 0, 0, 0]>, <225, 14, 31, 17, 12, 0, 1, [0, 1, 1, 0, 0, 0]>, <226, 15, 32, 17, 12, 0, 1, [0, 1, 1, 0, 0, 0]>, <227, 16, 33, 17, 12, 0, 1, [0, 1, 1, 0, 0, 0]>, <228, 17, 34, 17, 12, 0, 1, [0, 1, 1, 0, 0, 0]>, <229, 18, 35, 17, 12, 0, 1, [0, 1, 1, 0, 0, 0]>, <230, 0, 19, 19, 13, 0, 1, [1, 0, 0, 0, 0, 1]>, <231, 1, 20, 19, 13, 0, 1, [1, 0, 0, 0, 0, 1]>, <232, 2, 21, 19, 13, 0, 1, [1, 0, 0, 0, 0, 1]>, <233, 3, 22, 19, 13, 0, 1, [1, 0, 0, 0, 0, 1]>, <234, 4, 23, 19, 13, 0, 1, [1, 0, 0, 0, 0, 1]>, <235, 5, 24, 19, 13, 0, 1, [1, 0, 0, 0, 0, 1]>, <236, 6, 25, 19, 13, 0, 1, [1, 0, 0, 0, 0, 1]>, <237, 7, 26, 19, 13, 0, 1, [1, 0, 0, 0, 0, 1]>, <238, 8, 27, 19, 13, 0, 1, [1, 0, 0, 0, 0, 1]>, <239, 9, 28, 19, 13, 0, 1, [1, 0, 0, 0, 0, 1]>, <240, 10, 29, 19, 13, 0, 1, [1, 0, 0, 0, 0, 1]>, <241, 11, 30, 19, 13, 0, 1, [1, 0, 0, 0, 0, 1]>, <242, 12, 31, 19, 13, 0, 1, [1, 0, 0, 0, 0, 1]>, <243, 13, 32, 19, 13, 0, 1, [1, 0, 0, 0, 0, 1]>, <244, 14, 33, 19, 13, 0, 1, [1, 0, 0, 0, 0, 1]>, <245, 15, 34, 19, 13, 0, 1, [1, 0, 0, 0, 0, 1]>, <246, 16, 35, 19, 13, 0, 1, [1, 0, 0, 0, 0, 1]>, <247, 0, 20, 20, 14, 1, 0, [0, 0, 0, 1, 1, 0]>, <248, 1, 21, 20, 14, 1, 0, [0, 0, 0, 1, 1, 0]>, <249, 2, 22, 20, 14, 1, 0, [0, 0, 0, 1, 1, 0]>, <250, 3, 23, 20, 14, 1, 0, [0, 0, 0, 1, 1, 0]>, <251, 4, 24, 20, 14, 1, 0, [0, 0, 0, 1, 1, 0]>, <252, 5, 25, 20, 14, 1, 0, [0, 0, 0, 1, 1, 0]>, <253, 6, 26, 20, 14, 1, 0, [0, 0, 0, 1, 1, 0]>, <254, 7, 27, 20, 14, 1, 0, [0, 0, 0, 1, 1, 0]>, <255, 8, 28, 20, 14, 1, 0, [0, 0, 0, 1, 1, 0]>, <256, 9, 29, 20, 14, 1, 0, [0, 0, 0, 1, 1, 0]>, <257, 10, 30, 20, 14, 1, 0, [0, 0, 0, 1, 1, 0]>, <258, 11, 31, 20, 14, 1, 0, [0, 0, 0, 1, 1, 0]>, <259, 12, 32, 20, 14, 1, 0, [0, 0, 0, 1, 1, 0]>, <260, 13, 33, 20, 14, 1, 0, [0, 0, 0, 1, 1, 0]>, <261, 14, 34, 20, 14, 1, 0, [0, 0, 0, 1, 1, 0]>, <262, 15, 35, 20, 14, 1, 0, [0, 0, 0, 1, 1, 0]>};
